************************************************************************
file with basedata            : md361_.bas
initial value random generator: 1697609096
************************************************************************
projects                      :  1
jobs (incl. supersource/sink ):  22
horizon                       :  154
RESOURCES
  - renewable                 :  2   R
  - nonrenewable              :  2   N
  - doubly constrained        :  0   D
************************************************************************
PROJECT INFORMATION:
pronr.  #jobs rel.date duedate tardcost  MPM-Time
    1     20      0       27       18       27
************************************************************************
PRECEDENCE RELATIONS:
jobnr.    #modes  #successors   successors
   1        1          3           2   3   4
   2        3          3           9  10  15
   3        3          2           5   6
   4        3          3           7   9  16
   5        3          3           7  13  17
   6        3          3           8  11  12
   7        3          2          10  20
   8        3          3           9  19  21
   9        3          1          18
  10        3          2          11  21
  11        3          1          19
  12        3          2          15  17
  13        3          2          14  16
  14        3          2          15  21
  15        3          1          20
  16        3          2          18  19
  17        3          1          18
  18        3          1          20
  19        3          1          22
  20        3          1          22
  21        3          1          22
  22        1          0        
************************************************************************
REQUESTS/DURATIONS:
jobnr. mode duration  R 1  R 2  N 1  N 2
------------------------------------------------------------------------
  1      1     0       0    0    0    0
  2      1     2       0    2    7    8
         2     4       3    0    7    8
         3     5       2    0    7    5
  3      1     1       0    6    9    6
         2     3       6    0    7    6
         3     9       0    3    2    5
  4      1     2      10    0    9    4
         2     4       0    8    7    4
         3    10       0    6    5    4
  5      1     4      10    0   10    7
         2     5       9    0    9    6
         3     7       9    0    9    3
  6      1     1       0    8    4    7
         2     8       6    0    4    7
         3     8       0    7    3    7
  7      1     2       5    0    5    9
         2     2       0    6    5   10
         3     5       5    0    4    8
  8      1     2      10    0    3    3
         2     3       0    6    2    3
         3     4       0    3    1    2
  9      1     3       5    0    5    7
         2     4       0   10    3    6
         3     9       0    7    3    6
 10      1     2       0    2    4    9
         2     3       8    0    3    8
         3     6       8    0    3    7
 11      1     1       0    8   10   10
         2     8       0    7    9    9
         3    10       6    0    9    6
 12      1     2       8    0    9    3
         2     8       5    0    8    3
         3     9       0    5    6    3
 13      1     5       0    7   10    8
         2     7       4    0    9    8
         3     8       0    4    9    5
 14      1     2       9    0    6    2
         2     8       3    0    6    1
         3    10       0    8    4    1
 15      1     3      10    0    9    5
         2     3       0    3    9    6
         3     4       0    2    9    3
 16      1     7       8    0    6    7
         2     9       6    0    5    7
         3     9       7    0    6    6
 17      1     6       0    3    6    3
         2     7       0    2    6    3
         3    10       0    2    5    2
 18      1     6       0    5    9    7
         2     6       6    0    8    7
         3     7       0    5    5    6
 19      1     1       0    5    9    9
         2     4       0    5    7    9
         3     8       0    4    2    8
 20      1     4       0    8   10    9
         2     8       3    0    6    7
         3    10       3    0    6    3
 21      1     5       9    0    7    6
         2     5      10    0    7    5
         3     6       8    0    6    4
 22      1     0       0    0    0    0
************************************************************************
RESOURCEAVAILABILITIES:
  R 1  R 2  N 1  N 2
   15   10  125  113
************************************************************************
MAXIMAL LAGS:
from  to  type  delay
    1   22   ES      0
    1    2   ES      0
    2   22   ES      0
    1    3   ES      0
    3   22   ES      0
    1    4   ES      0
    4   22   ES      0
    1    5   ES      0
    5   22   ES      0
    1    6   ES      0
    6   22   ES      0
    1    7   ES      0
    7   22   ES      0
    1    8   ES      0
    8   22   ES      0
    1    9   ES      0
    9   22   ES      0
    1   10   ES      0
   10   22   ES      0
    1   11   ES      0
   11   22   ES      0
    1   12   ES      0
   12   22   ES      0
    1   13   ES      0
   13   22   ES      0
    1   14   ES      0
   14   22   ES      0
    1   15   ES      0
   15   22   ES      0
    1   16   ES      0
   16   22   ES      0
    1   17   ES      0
   17   22   ES      0
    1   18   ES      0
   18   22   ES      0
    1   19   ES      0
   19   22   ES      0
    1   20   ES      0
   20   22   ES      0
    1   21   ES      0
   21   22   ES      0
    1   22   ES      0
    2    9   SS      0
    2    9   SE     -4
    2    9   ES     -4
    2    9   EE      4
    2   10   SS      5
    2   10   SE     -2
    2   10   ES     -3
    2   10   EE      5
    2   15   SS      3
    2   15   SE     12
    2   15   ES     -2
    2   15   EE     -5
    3    5   SS     -9
    3    5   SE     -9
    3    5   ES      6
    3    5   EE      8
    3    6   SS     12
    3    6   SE     12
    3    6   ES      4
    3    6   EE    -12
    4    7   SS     -4
    4    7   SE     -7
    4    7   ES     -1
    4    7   EE     -1
    4    9   SS     -3
    4    9   SE     -8
    4    9   ES      4
    4    9   EE    -12
    4   16   SS     -2
    4   16   SE     -5
    4   16   ES      2
    4   16   EE      1
    5    7   SS     12
    5    7   SE     -3
    5    7   ES     -8
    5    7   EE     -1
    5   13   SS     -2
    5   13   SE    -12
    5   13   ES      3
    5   13   EE      5
    5   17   SS      1
    5   17   SE      5
    5   17   ES      4
    5   17   EE      8
    6    8   SS      2
    6    8   SE      5
    8    6   SE      0
    6    8   ES      0
    6    8   EE    -12
    6   11   SS      9
    6   11   SE     -7
    6   11   ES    -11
    6   11   EE     -5
    6   12   SS     11
    6   12   SE      6
    6   12   ES     -8
    6   12   EE     -7
    7   10   SS     -9
    7   10   SE     -5
    7   10   ES    -10
    7   10   EE      3
    7   20   SS    -11
    7   20   SE    -10
    7   20   ES      7
    7   20   EE     10
    8    9   SS     -2
    8    9   SE      5
    8    9   ES      0
    8    9   EE      1
    8   19   SS     -6
    8   19   SE      6
    8   19   ES     12
    8   19   EE      6
    8   21   SS      9
    8   21   SE     -8
    8   21   ES      5
    8   21   EE      3
    9   18   SS      6
    9   18   SE      4
    9   18   ES     12
    9   18   EE      3
   10   11   SS     -7
   10   11   SE      4
   10   11   ES      3
   10   11   EE     -6
   10   21   SS     10
   10   21   SE    -10
   10   21   ES     -4
   10   21   EE     -7
   11   19   SS     -3
   11   19   SE      6
   11   19   ES     -1
   11   19   EE      1
   12   15   SS     -7
   12   15   SE      6
   12   15   ES     -9
   12   15   EE      3
   12   17   SS      9
   12   17   SE      6
   12   17   ES      0
   12   17   EE     -3
   13   14   SS     -3
   13   14   SE     -9
   13   14   ES      1
   13   14   EE    -12
   13   16   SS     -5
   13   16   SE     -6
   13   16   ES     12
   13   16   EE     -7
   14   15   SS      5
   14   15   SE      5
   14   15   ES      4
   14   15   EE    -12
   14   21   SS      3
   14   21   SE    -12
   14   21   ES    -12
   14   21   EE     -2
   15   20   SS    -10
   15   20   SE     10
   15   20   ES    -11
   15   20   EE     -7
   16   18   SS      4
   16   18   SE      3
   16   18   ES     -3
   16   18   EE     -2
   16   19   SS      9
   16   19   SE    -10
   16   19   ES     -8
   16   19   EE    -12
   17   18   SS     -8
   17   18   SE      9
   17   18   ES     -7
   17   18   EE     11
   18   20   SS     10
   18   20   SE      8
   18   20   ES     12
   18   20   EE    -12
************************************************************************
